; PUSH cw_6 DUP1 MLOAD PUSH cw_5 PUSH cw_4 SWAP2 => PUSH cw_6 PUSH cw_4 PUSH cw_5 PUSH cw_6 MLOAD
(set-option :produce-proofs true)
; 
(set-info :status unknown)
(declare-fun storage_t ((_ BitVec 256) (_ BitVec 256) (_ BitVec 256) (_ BitVec 256) Int (_ BitVec 256)) (_ BitVec 256))
(declare-fun w_4 () (_ BitVec 256))
(declare-fun w_5 () (_ BitVec 256))
(declare-fun w_6 () (_ BitVec 256))
(declare-fun storage_s ((_ BitVec 256) (_ BitVec 256) (_ BitVec 256) (_ BitVec 256) Int (_ BitVec 256)) (_ BitVec 256))
(declare-fun exc_halt_t (Int) Bool)
(declare-fun exc_halt_s (Int) Bool)
(declare-fun stack_t ((_ BitVec 256) (_ BitVec 256) (_ BitVec 256) (_ BitVec 256) Int (_ BitVec 6)) (_ BitVec 256))
(declare-fun stack_s ((_ BitVec 256) (_ BitVec 256) (_ BitVec 256) (_ BitVec 256) Int (_ BitVec 6)) (_ BitVec 256))
(declare-fun sc_t (Int) (_ BitVec 6))
(declare-fun sc_s (Int) (_ BitVec 6))
(declare-fun used_gas_t ((_ BitVec 256) (_ BitVec 256) (_ BitVec 256) (_ BitVec 256) Int) Int)
(declare-fun used_gas_s ((_ BitVec 256) (_ BitVec 256) (_ BitVec 256) (_ BitVec 256) Int) Int)
(declare-fun f_MLOAD ((_ BitVec 256) (_ BitVec 256) (_ BitVec 256) (_ BitVec 256) (_ BitVec 256)) (_ BitVec 256))
(assert
 (exists ((x_MLOAD_0 (_ BitVec 256)) )(let (($x10928 (forall ((w (_ BitVec 256)) )(let ((?x2017 (storage_t w_6 w_5 w_4 x_MLOAD_0 5 w)))
 (let ((?x972 (storage_s w_6 w_5 w_4 x_MLOAD_0 6 w)))
 (= ?x972 ?x2017))))
 ))
 (let (($x886 (exc_halt_t 5)))
 (let (($x772 (exc_halt_s 6)))
 (let (($x889 (= $x772 $x886)))
 (let (($x9188 (forall ((n (_ BitVec 6)) )(let ((?x1535 (stack_t w_6 w_5 w_4 x_MLOAD_0 5 n)))
 (let ((?x1763 (stack_s w_6 w_5 w_4 x_MLOAD_0 6 n)))
 (let (($x6623 (= ?x1763 ?x1535)))
 (let ((?x919 (sc_t 5)))
 (let (($x4496 (bvsle ?x919 n)))
 (or $x4496 $x6623)))))))
 ))
 (let ((?x919 (sc_t 5)))
 (let ((?x926 (sc_s 6)))
 (let (($x929 (= ?x926 ?x919)))
 (let ((?x8629 (used_gas_t w_6 w_5 w_4 x_MLOAD_0 0)))
 (let ((?x4093 (used_gas_s w_6 w_5 w_4 x_MLOAD_0 0)))
 (let (($x10331 (= ?x4093 ?x8629)))
 (let (($x1795 (forall ((w (_ BitVec 256)) )(let ((?x2758 (storage_t w_6 w_5 w_4 x_MLOAD_0 0 w)))
 (let ((?x10036 (storage_s w_6 w_5 w_4 x_MLOAD_0 0 w)))
 (= ?x10036 ?x2758))))
 ))
 (let (($x56 (exc_halt_t 0)))
 (let (($x57 (exc_halt_s 0)))
 (let (($x58 (= $x57 $x56)))
 (let (($x1738 (forall ((n (_ BitVec 6)) )(let ((?x1213 (stack_t w_6 w_5 w_4 x_MLOAD_0 0 n)))
 (let ((?x6915 (stack_s w_6 w_5 w_4 x_MLOAD_0 0 n)))
 (let (($x5879 (= ?x6915 ?x1213)))
 (let ((?x63 (sc_t 0)))
 (let (($x2337 (bvsle ?x63 n)))
 (or $x2337 $x5879)))))))
 ))
 (let ((?x63 (sc_t 0)))
 (let ((?x72 (sc_s 0)))
 (let (($x73 (= ?x72 ?x63)))
 (let (($x10628 (= $x886 (or (exc_halt_t 4) (not (bvsle (_ bv0 6) (bvadd (_ bv63 6) (sc_t 4))))))))
 (let (($x6042 (forall ((w (_ BitVec 256)) )(let ((?x1365 (storage_t w_6 w_5 w_4 x_MLOAD_0 4 w)))
 (let ((?x2017 (storage_t w_6 w_5 w_4 x_MLOAD_0 5 w)))
 (= ?x2017 ?x1365))))
 ))
 (let (($x11013 (forall ((n (_ BitVec 6)) )(let ((?x10951 (stack_t w_6 w_5 w_4 x_MLOAD_0 4 n)))
 (let ((?x1535 (stack_t w_6 w_5 w_4 x_MLOAD_0 5 n)))
 (or (= ?x1535 ?x10951) (bvsle (bvadd (_ bv63 6) (sc_t 4)) n)))))
 ))
 (let (($x5127 (= (used_gas_t w_6 w_5 w_4 x_MLOAD_0 5) (+ 3 (used_gas_t w_6 w_5 w_4 x_MLOAD_0 4)))))
 (let ((?x2133 (f_MLOAD w_6 w_5 w_4 x_MLOAD_0 (stack_t w_6 w_5 w_4 x_MLOAD_0 4 (bvadd (_ bv63 6) (sc_t 4))))))
 (let (($x6057 (not (= ((_ extract 6 6) (bvadd (_ bv1 7) (concat (_ bv0 1) (sc_t 3)))) (_ bv0 1)))))
 (let (($x6783 (exc_halt_t 3)))
 (let (($x3723 (exc_halt_t 4)))
 (let (($x4110 (= $x3723 (or $x6783 $x6057))))
 (let (($x5844 (forall ((w (_ BitVec 256)) )(let ((?x1777 (storage_t w_6 w_5 w_4 x_MLOAD_0 3 w)))
 (let ((?x1365 (storage_t w_6 w_5 w_4 x_MLOAD_0 4 w)))
 (= ?x1365 ?x1777))))
 ))
 (let (($x11076 (forall ((n (_ BitVec 6)) )(let ((?x1744 (stack_t w_6 w_5 w_4 x_MLOAD_0 3 n)))
 (let ((?x10951 (stack_t w_6 w_5 w_4 x_MLOAD_0 4 n)))
 (let ((?x6438 (sc_t 3)))
 (let (($x256 (bvsle ?x6438 n)))
 (or $x256 (= ?x10951 ?x1744)))))))
 ))
 (let ((?x3757 (sc_t 4)))
 (let (($x6410 (= ?x3757 (bvadd (_ bv1 6) (sc_t 3)))))
 (let ((?x627 (used_gas_t w_6 w_5 w_4 x_MLOAD_0 4)))
 (let (($x4927 (not (= ((_ extract 6 6) (bvadd (_ bv1 7) (concat (_ bv0 1) (sc_t 2)))) (_ bv0 1)))))
 (let (($x5252 (exc_halt_t 2)))
 (let (($x1421 (= $x6783 (or $x5252 $x4927))))
 (let (($x8650 (forall ((w (_ BitVec 256)) )(let ((?x2789 (storage_t w_6 w_5 w_4 x_MLOAD_0 2 w)))
 (let ((?x1777 (storage_t w_6 w_5 w_4 x_MLOAD_0 3 w)))
 (= ?x1777 ?x2789))))
 ))
 (let (($x4892 (forall ((n (_ BitVec 6)) )(let ((?x2310 (stack_t w_6 w_5 w_4 x_MLOAD_0 2 n)))
 (let ((?x1744 (stack_t w_6 w_5 w_4 x_MLOAD_0 3 n)))
 (let ((?x2714 (sc_t 2)))
 (let (($x2040 (bvsle ?x2714 n)))
 (or $x2040 (= ?x1744 ?x2310)))))))
 ))
 (let ((?x6438 (sc_t 3)))
 (let (($x9136 (= ?x6438 (bvadd (_ bv1 6) (sc_t 2)))))
 (let ((?x6230 (used_gas_t w_6 w_5 w_4 x_MLOAD_0 3)))
 (let (($x9927 (not (= ((_ extract 6 6) (bvadd (_ bv1 7) (concat (_ bv0 1) (sc_t 1)))) (_ bv0 1)))))
 (let (($x326 (exc_halt_t 1)))
 (let (($x11355 (forall ((w (_ BitVec 256)) )(let ((?x3085 (storage_t w_6 w_5 w_4 x_MLOAD_0 1 w)))
 (let ((?x2789 (storage_t w_6 w_5 w_4 x_MLOAD_0 2 w)))
 (= ?x2789 ?x3085))))
 ))
 (let (($x8740 (forall ((n (_ BitVec 6)) )(let ((?x6178 (stack_t w_6 w_5 w_4 x_MLOAD_0 1 n)))
 (let ((?x2310 (stack_t w_6 w_5 w_4 x_MLOAD_0 2 n)))
 (or (bvsle (sc_t 1) n) (= ?x2310 ?x6178)))))
 ))
 (let ((?x2714 (sc_t 2)))
 (let (($x10865 (= ?x2714 (bvadd (_ bv1 6) (sc_t 1)))))
 (let ((?x10780 (used_gas_t w_6 w_5 w_4 x_MLOAD_0 2)))
 (let (($x3753 (= $x326 (or $x56 (not (= ((_ extract 6 6) (bvadd (_ bv1 7) (concat (_ bv0 1) ?x63))) (_ bv0 1)))))))
 (let (($x3354 (forall ((w (_ BitVec 256)) )(let ((?x2758 (storage_t w_6 w_5 w_4 x_MLOAD_0 0 w)))
 (let ((?x3085 (storage_t w_6 w_5 w_4 x_MLOAD_0 1 w)))
 (= ?x3085 ?x2758))))
 ))
 (let (($x11575 (forall ((n (_ BitVec 6)) )(let ((?x1213 (stack_t w_6 w_5 w_4 x_MLOAD_0 0 n)))
 (let ((?x6178 (stack_t w_6 w_5 w_4 x_MLOAD_0 1 n)))
 (let ((?x63 (sc_t 0)))
 (let (($x2337 (bvsle ?x63 n)))
 (or $x2337 (= ?x6178 ?x1213)))))))
 ))
 (let ((?x11560 (sc_t 1)))
 (let (($x7646 (= ?x11560 (bvadd (_ bv1 6) ?x63))))
 (let (($x11223 (= $x772 (or (exc_halt_s 5) (not (bvsle (_ bv0 6) (bvadd (_ bv61 6) (sc_s 5))))))))
 (let (($x5640 (forall ((w (_ BitVec 256)) )(let ((?x5857 (storage_s w_6 w_5 w_4 x_MLOAD_0 5 w)))
 (let ((?x972 (storage_s w_6 w_5 w_4 x_MLOAD_0 6 w)))
 (= ?x972 ?x5857))))
 ))
 (let (($x22 (forall ((n (_ BitVec 6)) )(let ((?x11285 (stack_s w_6 w_5 w_4 x_MLOAD_0 5 n)))
 (let ((?x1763 (stack_s w_6 w_5 w_4 x_MLOAD_0 6 n)))
 (let ((?x805 (sc_s 5)))
 (let ((?x2089 (bvadd (_ bv61 6) ?x805)))
 (let (($x5246 (bvsle ?x2089 n)))
 (or $x5246 (= ?x1763 ?x11285))))))))
 ))
 (let ((?x805 (sc_s 5)))
 (let (($x5873 (= ?x926 ?x805)))
 (let (($x8518 (= (used_gas_s w_6 w_5 w_4 x_MLOAD_0 6) (+ 3 (used_gas_s w_6 w_5 w_4 x_MLOAD_0 5)))))
 (let (($x11015 (= (stack_s w_6 w_5 w_4 x_MLOAD_0 6 (bvadd (_ bv62 6) ?x926)) (stack_s w_6 w_5 w_4 x_MLOAD_0 5 (bvadd (_ bv62 6) ?x805)))))
 (let (($x8474 (= (stack_s w_6 w_5 w_4 x_MLOAD_0 6 (bvadd (_ bv61 6) ?x926)) (stack_s w_6 w_5 w_4 x_MLOAD_0 5 (bvadd (_ bv63 6) ?x805)))))
 (let (($x10335 (= (stack_s w_6 w_5 w_4 x_MLOAD_0 6 (bvadd (_ bv63 6) ?x926)) (stack_s w_6 w_5 w_4 x_MLOAD_0 5 (bvadd (_ bv61 6) ?x805)))))
 (let (($x3842 (not (= ((_ extract 6 6) (bvadd (_ bv1 7) (concat (_ bv0 1) (sc_s 4)))) (_ bv0 1)))))
 (let (($x7172 (exc_halt_s 4)))
 (let (($x3979 (exc_halt_s 5)))
 (let (($x10496 (forall ((w (_ BitVec 256)) )(let ((?x9101 (storage_s w_6 w_5 w_4 x_MLOAD_0 4 w)))
 (let ((?x5857 (storage_s w_6 w_5 w_4 x_MLOAD_0 5 w)))
 (= ?x5857 ?x9101))))
 ))
 (let (($x9538 (forall ((n (_ BitVec 6)) )(let ((?x473 (stack_s w_6 w_5 w_4 x_MLOAD_0 4 n)))
 (let ((?x11285 (stack_s w_6 w_5 w_4 x_MLOAD_0 5 n)))
 (or (= ?x11285 ?x473) (bvsle (sc_s 4) n)))))
 ))
 (let (($x6906 (= ?x805 (bvadd (_ bv1 6) (sc_s 4)))))
 (let ((?x8311 (used_gas_s w_6 w_5 w_4 x_MLOAD_0 5)))
 (let (($x7104 (not (= ((_ extract 6 6) (bvadd (_ bv1 7) (concat (_ bv0 1) (sc_s 3)))) (_ bv0 1)))))
 (let (($x292 (exc_halt_s 3)))
 (let (($x7119 (forall ((w (_ BitVec 256)) )(let ((?x4603 (storage_s w_6 w_5 w_4 x_MLOAD_0 3 w)))
 (let ((?x9101 (storage_s w_6 w_5 w_4 x_MLOAD_0 4 w)))
 (= ?x9101 ?x4603))))
 ))
 (let (($x6661 (forall ((n (_ BitVec 6)) )(let ((?x3616 (stack_s w_6 w_5 w_4 x_MLOAD_0 3 n)))
 (let ((?x473 (stack_s w_6 w_5 w_4 x_MLOAD_0 4 n)))
 (or (= ?x473 ?x3616) (bvsle (sc_s 3) n)))))
 ))
 (let ((?x4305 (sc_s 4)))
 (let (($x9578 (= ?x4305 (bvadd (_ bv1 6) (sc_s 3)))))
 (let ((?x7742 (used_gas_s w_6 w_5 w_4 x_MLOAD_0 4)))
 (let (($x7691 (= $x292 (or (exc_halt_s 2) (not (bvsle (_ bv0 6) (bvadd (_ bv63 6) (sc_s 2))))))))
 (let (($x4569 (forall ((w (_ BitVec 256)) )(let ((?x9868 (storage_s w_6 w_5 w_4 x_MLOAD_0 2 w)))
 (let ((?x4603 (storage_s w_6 w_5 w_4 x_MLOAD_0 3 w)))
 (= ?x4603 ?x9868))))
 ))
 (let (($x4447 (forall ((n (_ BitVec 6)) )(let ((?x218 (sc_s 2)))
 (let ((?x5548 (bvadd (_ bv63 6) ?x218)))
 (let (($x8394 (bvsle ?x5548 n)))
 (let ((?x5572 (stack_s w_6 w_5 w_4 x_MLOAD_0 2 n)))
 (let ((?x3616 (stack_s w_6 w_5 w_4 x_MLOAD_0 3 n)))
 (or (= ?x3616 ?x5572) $x8394)))))))
 ))
 (let ((?x218 (sc_s 2)))
 (let ((?x275 (sc_s 3)))
 (let (($x4017 (= ?x275 ?x218)))
 (let ((?x5626 (used_gas_s w_6 w_5 w_4 x_MLOAD_0 3)))
 (let ((?x5548 (bvadd (_ bv63 6) ?x218)))
 (let ((?x1791 (stack_s w_6 w_5 w_4 x_MLOAD_0 2 ?x5548)))
 (let (($x4096 (= (stack_s w_6 w_5 w_4 x_MLOAD_0 3 (bvadd (_ bv63 6) ?x275)) (f_MLOAD w_6 w_5 w_4 x_MLOAD_0 ?x1791))))
 (let (($x11093 (not (bvsle (_ bv0 6) (bvadd (_ bv63 6) (sc_s 1))))))
 (let (($x9639 (not (= ((_ extract 6 6) (bvadd (_ bv1 7) (concat (_ bv0 1) (sc_s 1)))) (_ bv0 1)))))
 (let (($x189 (exc_halt_s 1)))
 (let (($x247 (exc_halt_s 2)))
 (let (($x2651 (= $x247 (or $x189 $x9639 $x11093))))
 (let (($x3575 (forall ((w (_ BitVec 256)) )(let ((?x9317 (storage_s w_6 w_5 w_4 x_MLOAD_0 1 w)))
 (let ((?x9868 (storage_s w_6 w_5 w_4 x_MLOAD_0 2 w)))
 (= ?x9868 ?x9317))))
 ))
 (let (($x6765 (forall ((n (_ BitVec 6)) )(let ((?x2578 (stack_s w_6 w_5 w_4 x_MLOAD_0 1 n)))
 (let ((?x5572 (stack_s w_6 w_5 w_4 x_MLOAD_0 2 n)))
 (let ((?x154 (sc_s 1)))
 (let ((?x10146 (bvadd (_ bv63 6) ?x154)))
 (let (($x811 (bvsle ?x10146 n)))
 (or $x811 (= ?x5572 ?x2578))))))))
 ))
 (let (($x747 (= ?x218 (bvadd (_ bv1 6) (sc_s 1)))))
 (let ((?x10058 (used_gas_s w_6 w_5 w_4 x_MLOAD_0 2)))
 (let ((?x154 (sc_s 1)))
 (let ((?x10146 (bvadd (_ bv63 6) ?x154)))
 (let ((?x5495 (stack_s w_6 w_5 w_4 x_MLOAD_0 1 ?x10146)))
 (let (($x4214 (= $x189 (or $x57 (not (= ((_ extract 6 6) (bvadd (_ bv1 7) (concat (_ bv0 1) ?x72))) (_ bv0 1)))))))
 (let (($x2752 (forall ((w (_ BitVec 256)) )(let ((?x10036 (storage_s w_6 w_5 w_4 x_MLOAD_0 0 w)))
 (let ((?x9317 (storage_s w_6 w_5 w_4 x_MLOAD_0 1 w)))
 (= ?x9317 ?x10036))))
 ))
 (let (($x10609 (forall ((n (_ BitVec 6)) )(let ((?x72 (sc_s 0)))
 (let (($x8577 (bvsle ?x72 n)))
 (let ((?x6915 (stack_s w_6 w_5 w_4 x_MLOAD_0 0 n)))
 (let ((?x2578 (stack_s w_6 w_5 w_4 x_MLOAD_0 1 n)))
 (or (= ?x2578 ?x6915) $x8577))))))
 ))
 (let (($x3297 (= ?x154 (bvadd (_ bv1 6) ?x72))))
 (let (($x10169 (forall ((w0 (_ BitVec 256)) )(let (($x10379 (= (stack_s w_6 w_5 w_4 x_MLOAD_0 2 (bvadd (_ bv63 6) (sc_s 2))) w0)))
 (let ((?x470 (f_MLOAD w_6 w_5 w_4 x_MLOAD_0 w0)))
 (= ?x470 (ite $x10379 x_MLOAD_0 (_ bv0 256))))))
 ))
 (let (($x5707 (forall ((w (_ BitVec 256)) )(let ((?x10036 (storage_s w_6 w_5 w_4 x_MLOAD_0 0 w)))
 (= ?x10036 (_ bv0 256))))
 ))
 (let (($x2472 (= ?x4093 0)))
 (let (($x4887 (not $x57)))
 (let (($x5339 (= ?x72 (_ bv0 6))))
 (and $x5339 $x4887 $x2472 $x5707 $x10169 (= (stack_s w_6 w_5 w_4 x_MLOAD_0 1 ?x72) w_6) (= (used_gas_s w_6 w_5 w_4 x_MLOAD_0 1) (+ 3 ?x4093)) $x3297 $x10609 $x2752 $x4214 (= ?x1791 ?x5495) (= (stack_s w_6 w_5 w_4 x_MLOAD_0 2 ?x10146) ?x5495) (= ?x10058 (+ 3 (used_gas_s w_6 w_5 w_4 x_MLOAD_0 1))) $x747 $x6765 $x3575 $x2651 $x4096 (= ?x5626 (+ 3 ?x10058)) $x4017 $x4447 $x4569 $x7691 (= (stack_s w_6 w_5 w_4 x_MLOAD_0 4 ?x275) w_5) (= ?x7742 (+ 3 ?x5626)) $x9578 $x6661 $x7119 (= $x7172 (or $x292 $x7104)) (= (stack_s w_6 w_5 w_4 x_MLOAD_0 5 ?x4305) w_4) (= ?x8311 (+ 3 ?x7742)) $x6906 $x9538 $x10496 (= $x3979 (or $x7172 $x3842)) $x10335 $x8474 $x11015 $x8518 $x5873 $x22 $x5640 $x11223 (= (stack_t w_6 w_5 w_4 x_MLOAD_0 1 ?x63) w_6) (= (used_gas_t w_6 w_5 w_4 x_MLOAD_0 1) (+ 3 ?x8629)) $x7646 $x11575 $x3354 $x3753 (= (stack_t w_6 w_5 w_4 x_MLOAD_0 2 ?x11560) w_4) (= ?x10780 (+ 3 (used_gas_t w_6 w_5 w_4 x_MLOAD_0 1))) $x10865 $x8740 $x11355 (= $x5252 (or $x326 $x9927)) (= (stack_t w_6 w_5 w_4 x_MLOAD_0 3 ?x2714) w_5) (= ?x6230 (+ 3 ?x10780)) $x9136 $x4892 $x8650 $x1421 (= (stack_t w_6 w_5 w_4 x_MLOAD_0 4 ?x6438) w_6) (= ?x627 (+ 3 ?x6230)) $x6410 $x11076 $x5844 $x4110 (= (stack_t w_6 w_5 w_4 x_MLOAD_0 5 (bvadd (_ bv63 6) ?x919)) ?x2133) $x5127 (= ?x919 ?x3757) $x11013 $x6042 $x10628 $x73 $x1738 $x58 $x1795 $x10331 (not (and $x929 $x9188 $x889 $x10928)))))))))))))))))))))))))))))))))))))))))))))))))))))))))))))))))))))))))))))))))))))))))))))))))))))))))))))))
 )
(check-sat)
(get-proof)
